33D32945 STP File, STP Format Version 1.0

SECTION Comment 
Name "hc8p" 
Creator ""  
Remark "prize version of Rosseti et al. hypercube graphs"  
END 

SECTION Graph
Nodes 256
Edges 1024
E 1 129 100.000000
E 1 65 101.000000
E 1 33 108.000000
E 1 17 105.000000
E 1 9 105.000000
E 1 5 102.000000
E 1 3 100.000000
E 1 2 107.000000
E 2 130 107.000000
E 2 66 110.000000
E 2 34 104.000000
E 2 18 105.000000
E 2 10 109.000000
E 2 6 100.000000
E 2 4 100.000000
E 3 131 105.000000
E 3 67 107.000000
E 3 35 100.000000
E 3 19 104.000000
E 3 11 100.000000
E 3 7 104.000000
E 3 4 107.000000
E 4 132 106.000000
E 4 68 110.000000
E 4 36 109.000000
E 4 20 105.000000
E 4 12 101.000000
E 4 8 107.000000
E 5 133 104.000000
E 5 69 107.000000
E 5 37 110.000000
E 5 21 108.000000
E 5 13 102.000000
E 5 7 100.000000
E 5 6 108.000000
E 6 134 103.000000
E 6 70 106.000000
E 6 38 108.000000
E 6 22 110.000000
E 6 14 104.000000
E 6 8 102.000000
E 7 135 110.000000
E 7 71 107.000000
E 7 39 108.000000
E 7 23 107.000000
E 7 15 100.000000
E 7 8 106.000000
E 8 136 109.000000
E 8 72 102.000000
E 8 40 104.000000
E 8 24 108.000000
E 8 16 105.000000
E 9 137 102.000000
E 9 73 103.000000
E 9 41 103.000000
E 9 25 101.000000
E 9 13 105.000000
E 9 11 109.000000
E 9 10 110.000000
E 10 138 100.000000
E 10 74 109.000000
E 10 42 105.000000
E 10 26 105.000000
E 10 14 103.000000
E 10 12 110.000000
E 11 139 105.000000
E 11 75 102.000000
E 11 43 100.000000
E 11 27 110.000000
E 11 15 100.000000
E 11 12 105.000000
E 12 140 104.000000
E 12 76 103.000000
E 12 44 110.000000
E 12 28 105.000000
E 12 16 105.000000
E 13 141 110.000000
E 13 77 100.000000
E 13 45 108.000000
E 13 29 108.000000
E 13 15 109.000000
E 13 14 101.000000
E 14 142 100.000000
E 14 78 107.000000
E 14 46 109.000000
E 14 30 106.000000
E 14 16 108.000000
E 15 143 107.000000
E 15 79 110.000000
E 15 47 109.000000
E 15 31 102.000000
E 15 16 103.000000
E 16 144 103.000000
E 16 80 105.000000
E 16 48 106.000000
E 16 32 109.000000
E 17 145 104.000000
E 17 81 109.000000
E 17 49 102.000000
E 17 25 104.000000
E 17 21 105.000000
E 17 19 105.000000
E 17 18 103.000000
E 18 146 101.000000
E 18 82 101.000000
E 18 50 106.000000
E 18 26 108.000000
E 18 22 100.000000
E 18 20 105.000000
E 19 147 105.000000
E 19 83 110.000000
E 19 51 108.000000
E 19 27 106.000000
E 19 23 109.000000
E 19 20 106.000000
E 20 148 109.000000
E 20 84 101.000000
E 20 52 102.000000
E 20 28 107.000000
E 20 24 101.000000
E 21 149 101.000000
E 21 85 103.000000
E 21 53 100.000000
E 21 29 104.000000
E 21 23 100.000000
E 21 22 107.000000
E 22 150 110.000000
E 22 86 102.000000
E 22 54 101.000000
E 22 30 103.000000
E 22 24 109.000000
E 23 151 107.000000
E 23 87 101.000000
E 23 55 107.000000
E 23 31 104.000000
E 23 24 104.000000
E 24 152 105.000000
E 24 88 101.000000
E 24 56 106.000000
E 24 32 109.000000
E 25 153 106.000000
E 25 89 110.000000
E 25 57 106.000000
E 25 29 101.000000
E 25 27 110.000000
E 25 26 104.000000
E 26 154 101.000000
E 26 90 106.000000
E 26 58 102.000000
E 26 30 105.000000
E 26 28 105.000000
E 27 155 110.000000
E 27 91 101.000000
E 27 59 102.000000
E 27 31 103.000000
E 27 28 106.000000
E 28 156 101.000000
E 28 92 107.000000
E 28 60 106.000000
E 28 32 108.000000
E 29 157 102.000000
E 29 93 105.000000
E 29 61 104.000000
E 29 31 102.000000
E 29 30 100.000000
E 30 158 109.000000
E 30 94 104.000000
E 30 62 101.000000
E 30 32 110.000000
E 31 159 104.000000
E 31 95 101.000000
E 31 63 109.000000
E 31 32 101.000000
E 32 160 101.000000
E 32 96 100.000000
E 32 64 104.000000
E 33 161 102.000000
E 33 97 101.000000
E 33 49 108.000000
E 33 41 105.000000
E 33 37 103.000000
E 33 35 104.000000
E 33 34 108.000000
E 34 162 110.000000
E 34 98 107.000000
E 34 50 102.000000
E 34 42 107.000000
E 34 38 109.000000
E 34 36 102.000000
E 35 163 109.000000
E 35 99 105.000000
E 35 51 105.000000
E 35 43 106.000000
E 35 39 108.000000
E 35 36 108.000000
E 36 164 105.000000
E 36 100 110.000000
E 36 52 106.000000
E 36 44 104.000000
E 36 40 109.000000
E 37 165 107.000000
E 37 101 107.000000
E 37 53 110.000000
E 37 45 110.000000
E 37 39 109.000000
E 37 38 103.000000
E 38 166 105.000000
E 38 102 105.000000
E 38 54 101.000000
E 38 46 104.000000
E 38 40 106.000000
E 39 167 109.000000
E 39 103 104.000000
E 39 55 108.000000
E 39 47 109.000000
E 39 40 107.000000
E 40 168 108.000000
E 40 104 107.000000
E 40 56 108.000000
E 40 48 100.000000
E 41 169 109.000000
E 41 105 105.000000
E 41 57 105.000000
E 41 45 100.000000
E 41 43 107.000000
E 41 42 105.000000
E 42 170 107.000000
E 42 106 107.000000
E 42 58 102.000000
E 42 46 110.000000
E 42 44 109.000000
E 43 171 109.000000
E 43 107 105.000000
E 43 59 101.000000
E 43 47 104.000000
E 43 44 110.000000
E 44 172 102.000000
E 44 108 104.000000
E 44 60 103.000000
E 44 48 105.000000
E 45 173 109.000000
E 45 109 104.000000
E 45 61 105.000000
E 45 47 108.000000
E 45 46 104.000000
E 46 174 102.000000
E 46 110 110.000000
E 46 62 101.000000
E 46 48 106.000000
E 47 175 106.000000
E 47 111 100.000000
E 47 63 100.000000
E 47 48 108.000000
E 48 176 108.000000
E 48 112 103.000000
E 48 64 104.000000
E 49 177 107.000000
E 49 113 107.000000
E 49 57 102.000000
E 49 53 109.000000
E 49 51 107.000000
E 49 50 109.000000
E 50 178 101.000000
E 50 114 100.000000
E 50 58 108.000000
E 50 54 106.000000
E 50 52 102.000000
E 51 179 102.000000
E 51 115 100.000000
E 51 59 104.000000
E 51 55 110.000000
E 51 52 110.000000
E 52 180 104.000000
E 52 116 102.000000
E 52 60 107.000000
E 52 56 103.000000
E 53 181 108.000000
E 53 117 108.000000
E 53 61 104.000000
E 53 55 103.000000
E 53 54 102.000000
E 54 182 100.000000
E 54 118 102.000000
E 54 62 110.000000
E 54 56 102.000000
E 55 183 109.000000
E 55 119 101.000000
E 55 63 104.000000
E 55 56 106.000000
E 56 184 101.000000
E 56 120 109.000000
E 56 64 101.000000
E 57 185 110.000000
E 57 121 102.000000
E 57 61 102.000000
E 57 59 101.000000
E 57 58 102.000000
E 58 186 106.000000
E 58 122 107.000000
E 58 62 108.000000
E 58 60 107.000000
E 59 187 108.000000
E 59 123 107.000000
E 59 63 106.000000
E 59 60 100.000000
E 60 188 106.000000
E 60 124 102.000000
E 60 64 103.000000
E 61 189 107.000000
E 61 125 101.000000
E 61 63 108.000000
E 61 62 105.000000
E 62 190 106.000000
E 62 126 106.000000
E 62 64 103.000000
E 63 191 107.000000
E 63 127 101.000000
E 63 64 101.000000
E 64 192 105.000000
E 64 128 109.000000
E 65 193 108.000000
E 65 97 106.000000
E 65 81 108.000000
E 65 73 103.000000
E 65 69 101.000000
E 65 67 105.000000
E 65 66 103.000000
E 66 194 106.000000
E 66 98 105.000000
E 66 82 104.000000
E 66 74 102.000000
E 66 70 104.000000
E 66 68 104.000000
E 67 195 104.000000
E 67 99 105.000000
E 67 83 104.000000
E 67 75 103.000000
E 67 71 100.000000
E 67 68 104.000000
E 68 196 102.000000
E 68 100 107.000000
E 68 84 107.000000
E 68 76 105.000000
E 68 72 108.000000
E 69 197 107.000000
E 69 101 110.000000
E 69 85 105.000000
E 69 77 110.000000
E 69 71 103.000000
E 69 70 105.000000
E 70 198 105.000000
E 70 102 107.000000
E 70 86 104.000000
E 70 78 106.000000
E 70 72 110.000000
E 71 199 101.000000
E 71 103 107.000000
E 71 87 103.000000
E 71 79 105.000000
E 71 72 105.000000
E 72 200 109.000000
E 72 104 100.000000
E 72 88 103.000000
E 72 80 107.000000
E 73 201 106.000000
E 73 105 110.000000
E 73 89 102.000000
E 73 77 110.000000
E 73 75 102.000000
E 73 74 109.000000
E 74 202 107.000000
E 74 106 105.000000
E 74 90 108.000000
E 74 78 100.000000
E 74 76 101.000000
E 75 203 107.000000
E 75 107 107.000000
E 75 91 104.000000
E 75 79 106.000000
E 75 76 108.000000
E 76 204 110.000000
E 76 108 107.000000
E 76 92 103.000000
E 76 80 108.000000
E 77 205 101.000000
E 77 109 100.000000
E 77 93 105.000000
E 77 79 100.000000
E 77 78 101.000000
E 78 206 109.000000
E 78 110 108.000000
E 78 94 108.000000
E 78 80 104.000000
E 79 207 100.000000
E 79 111 106.000000
E 79 95 105.000000
E 79 80 100.000000
E 80 208 105.000000
E 80 112 104.000000
E 80 96 102.000000
E 81 209 104.000000
E 81 113 106.000000
E 81 89 107.000000
E 81 85 107.000000
E 81 83 105.000000
E 81 82 103.000000
E 82 210 108.000000
E 82 114 104.000000
E 82 90 107.000000
E 82 86 103.000000
E 82 84 100.000000
E 83 211 101.000000
E 83 115 105.000000
E 83 91 108.000000
E 83 87 102.000000
E 83 84 100.000000
E 84 212 100.000000
E 84 116 101.000000
E 84 92 107.000000
E 84 88 103.000000
E 85 213 100.000000
E 85 117 105.000000
E 85 93 105.000000
E 85 87 105.000000
E 85 86 104.000000
E 86 214 101.000000
E 86 118 103.000000
E 86 94 109.000000
E 86 88 107.000000
E 87 215 106.000000
E 87 119 107.000000
E 87 95 103.000000
E 87 88 100.000000
E 88 216 110.000000
E 88 120 105.000000
E 88 96 100.000000
E 89 217 109.000000
E 89 121 100.000000
E 89 93 104.000000
E 89 91 105.000000
E 89 90 106.000000
E 90 218 108.000000
E 90 122 107.000000
E 90 94 105.000000
E 90 92 100.000000
E 91 219 101.000000
E 91 123 110.000000
E 91 95 102.000000
E 91 92 103.000000
E 92 220 106.000000
E 92 124 106.000000
E 92 96 101.000000
E 93 221 106.000000
E 93 125 110.000000
E 93 95 103.000000
E 93 94 109.000000
E 94 222 110.000000
E 94 126 102.000000
E 94 96 102.000000
E 95 223 104.000000
E 95 127 108.000000
E 95 96 109.000000
E 96 224 102.000000
E 96 128 108.000000
E 97 225 107.000000
E 97 113 104.000000
E 97 105 102.000000
E 97 101 107.000000
E 97 99 101.000000
E 97 98 102.000000
E 98 226 101.000000
E 98 114 106.000000
E 98 106 100.000000
E 98 102 101.000000
E 98 100 106.000000
E 99 227 104.000000
E 99 115 100.000000
E 99 107 107.000000
E 99 103 104.000000
E 99 100 109.000000
E 100 228 101.000000
E 100 116 110.000000
E 100 108 100.000000
E 100 104 100.000000
E 101 229 105.000000
E 101 117 108.000000
E 101 109 110.000000
E 101 103 102.000000
E 101 102 103.000000
E 102 230 108.000000
E 102 118 105.000000
E 102 110 108.000000
E 102 104 107.000000
E 103 231 107.000000
E 103 119 108.000000
E 103 111 100.000000
E 103 104 102.000000
E 104 232 102.000000
E 104 120 106.000000
E 104 112 107.000000
E 105 233 106.000000
E 105 121 104.000000
E 105 109 102.000000
E 105 107 102.000000
E 105 106 107.000000
E 106 234 101.000000
E 106 122 108.000000
E 106 110 101.000000
E 106 108 100.000000
E 107 235 107.000000
E 107 123 101.000000
E 107 111 110.000000
E 107 108 105.000000
E 108 236 106.000000
E 108 124 110.000000
E 108 112 100.000000
E 109 237 106.000000
E 109 125 107.000000
E 109 111 105.000000
E 109 110 100.000000
E 110 238 104.000000
E 110 126 105.000000
E 110 112 108.000000
E 111 239 100.000000
E 111 127 104.000000
E 111 112 110.000000
E 112 240 105.000000
E 112 128 103.000000
E 113 241 104.000000
E 113 121 108.000000
E 113 117 102.000000
E 113 115 101.000000
E 113 114 104.000000
E 114 242 110.000000
E 114 122 110.000000
E 114 118 102.000000
E 114 116 100.000000
E 115 243 101.000000
E 115 123 105.000000
E 115 119 101.000000
E 115 116 105.000000
E 116 244 101.000000
E 116 124 109.000000
E 116 120 104.000000
E 117 245 104.000000
E 117 125 103.000000
E 117 119 107.000000
E 117 118 106.000000
E 118 246 109.000000
E 118 126 108.000000
E 118 120 109.000000
E 119 247 107.000000
E 119 127 104.000000
E 119 120 110.000000
E 120 248 106.000000
E 120 128 103.000000
E 121 249 105.000000
E 121 125 105.000000
E 121 123 104.000000
E 121 122 102.000000
E 122 250 100.000000
E 122 126 104.000000
E 122 124 105.000000
E 123 251 103.000000
E 123 127 101.000000
E 123 124 102.000000
E 124 252 108.000000
E 124 128 105.000000
E 125 253 107.000000
E 125 127 109.000000
E 125 126 102.000000
E 126 254 107.000000
E 126 128 102.000000
E 127 255 104.000000
E 127 128 100.000000
E 128 256 105.000000
E 129 193 102.000000
E 129 161 108.000000
E 129 145 105.000000
E 129 137 100.000000
E 129 133 102.000000
E 129 131 107.000000
E 129 130 104.000000
E 130 194 102.000000
E 130 162 110.000000
E 130 146 101.000000
E 130 138 108.000000
E 130 134 110.000000
E 130 132 101.000000
E 131 195 106.000000
E 131 163 100.000000
E 131 147 103.000000
E 131 139 103.000000
E 131 135 105.000000
E 131 132 109.000000
E 132 196 109.000000
E 132 164 107.000000
E 132 148 103.000000
E 132 140 108.000000
E 132 136 106.000000
E 133 197 100.000000
E 133 165 100.000000
E 133 149 101.000000
E 133 141 108.000000
E 133 135 100.000000
E 133 134 105.000000
E 134 198 110.000000
E 134 166 102.000000
E 134 150 102.000000
E 134 142 100.000000
E 134 136 107.000000
E 135 199 107.000000
E 135 167 105.000000
E 135 151 102.000000
E 135 143 107.000000
E 135 136 104.000000
E 136 200 102.000000
E 136 168 102.000000
E 136 152 104.000000
E 136 144 105.000000
E 137 201 109.000000
E 137 169 110.000000
E 137 153 104.000000
E 137 141 100.000000
E 137 139 105.000000
E 137 138 100.000000
E 138 202 108.000000
E 138 170 106.000000
E 138 154 109.000000
E 138 142 103.000000
E 138 140 102.000000
E 139 203 105.000000
E 139 171 104.000000
E 139 155 104.000000
E 139 143 110.000000
E 139 140 110.000000
E 140 204 109.000000
E 140 172 109.000000
E 140 156 103.000000
E 140 144 101.000000
E 141 205 110.000000
E 141 173 107.000000
E 141 157 105.000000
E 141 143 110.000000
E 141 142 107.000000
E 142 206 108.000000
E 142 174 105.000000
E 142 158 106.000000
E 142 144 101.000000
E 143 207 110.000000
E 143 175 109.000000
E 143 159 101.000000
E 143 144 100.000000
E 144 208 103.000000
E 144 176 101.000000
E 144 160 101.000000
E 145 209 105.000000
E 145 177 100.000000
E 145 153 106.000000
E 145 149 109.000000
E 145 147 105.000000
E 145 146 107.000000
E 146 210 108.000000
E 146 178 107.000000
E 146 154 100.000000
E 146 150 102.000000
E 146 148 107.000000
E 147 211 103.000000
E 147 179 100.000000
E 147 155 101.000000
E 147 151 110.000000
E 147 148 102.000000
E 148 212 104.000000
E 148 180 106.000000
E 148 156 101.000000
E 148 152 100.000000
E 149 213 107.000000
E 149 181 108.000000
E 149 157 107.000000
E 149 151 100.000000
E 149 150 106.000000
E 150 214 110.000000
E 150 182 110.000000
E 150 158 104.000000
E 150 152 105.000000
E 151 215 109.000000
E 151 183 110.000000
E 151 159 106.000000
E 151 152 107.000000
E 152 216 105.000000
E 152 184 105.000000
E 152 160 101.000000
E 153 217 110.000000
E 153 185 106.000000
E 153 157 103.000000
E 153 155 105.000000
E 153 154 107.000000
E 154 218 107.000000
E 154 186 101.000000
E 154 158 106.000000
E 154 156 106.000000
E 155 219 107.000000
E 155 187 105.000000
E 155 159 106.000000
E 155 156 106.000000
E 156 220 104.000000
E 156 188 101.000000
E 156 160 105.000000
E 157 221 108.000000
E 157 189 100.000000
E 157 159 100.000000
E 157 158 105.000000
E 158 222 103.000000
E 158 190 100.000000
E 158 160 102.000000
E 159 223 101.000000
E 159 191 104.000000
E 159 160 106.000000
E 160 224 106.000000
E 160 192 106.000000
E 161 225 110.000000
E 161 177 108.000000
E 161 169 105.000000
E 161 165 105.000000
E 161 163 107.000000
E 161 162 107.000000
E 162 226 104.000000
E 162 178 105.000000
E 162 170 105.000000
E 162 166 107.000000
E 162 164 105.000000
E 163 227 103.000000
E 163 179 106.000000
E 163 171 103.000000
E 163 167 107.000000
E 163 164 105.000000
E 164 228 110.000000
E 164 180 102.000000
E 164 172 104.000000
E 164 168 106.000000
E 165 229 108.000000
E 165 181 110.000000
E 165 173 107.000000
E 165 167 109.000000
E 165 166 105.000000
E 166 230 102.000000
E 166 182 101.000000
E 166 174 109.000000
E 166 168 102.000000
E 167 231 107.000000
E 167 183 100.000000
E 167 175 110.000000
E 167 168 103.000000
E 168 232 109.000000
E 168 184 103.000000
E 168 176 110.000000
E 169 233 105.000000
E 169 185 101.000000
E 169 173 104.000000
E 169 171 107.000000
E 169 170 104.000000
E 170 234 101.000000
E 170 186 108.000000
E 170 174 101.000000
E 170 172 104.000000
E 171 235 103.000000
E 171 187 103.000000
E 171 175 108.000000
E 171 172 103.000000
E 172 236 103.000000
E 172 188 100.000000
E 172 176 106.000000
E 173 237 105.000000
E 173 189 102.000000
E 173 175 101.000000
E 173 174 110.000000
E 174 238 109.000000
E 174 190 105.000000
E 174 176 104.000000
E 175 239 108.000000
E 175 191 101.000000
E 175 176 101.000000
E 176 240 100.000000
E 176 192 101.000000
E 177 241 105.000000
E 177 185 104.000000
E 177 181 109.000000
E 177 179 104.000000
E 177 178 104.000000
E 178 242 107.000000
E 178 186 103.000000
E 178 182 100.000000
E 178 180 108.000000
E 179 243 109.000000
E 179 187 110.000000
E 179 183 109.000000
E 179 180 108.000000
E 180 244 101.000000
E 180 188 106.000000
E 180 184 100.000000
E 181 245 108.000000
E 181 189 105.000000
E 181 183 109.000000
E 181 182 103.000000
E 182 246 109.000000
E 182 190 106.000000
E 182 184 104.000000
E 183 247 108.000000
E 183 191 105.000000
E 183 184 110.000000
E 184 248 104.000000
E 184 192 106.000000
E 185 249 108.000000
E 185 189 109.000000
E 185 187 103.000000
E 185 186 102.000000
E 186 250 108.000000
E 186 190 107.000000
E 186 188 109.000000
E 187 251 100.000000
E 187 191 107.000000
E 187 188 109.000000
E 188 252 103.000000
E 188 192 100.000000
E 189 253 101.000000
E 189 191 104.000000
E 189 190 101.000000
E 190 254 107.000000
E 190 192 106.000000
E 191 255 108.000000
E 191 192 109.000000
E 192 256 108.000000
E 193 225 106.000000
E 193 209 109.000000
E 193 201 109.000000
E 193 197 105.000000
E 193 195 101.000000
E 193 194 104.000000
E 194 226 104.000000
E 194 210 107.000000
E 194 202 101.000000
E 194 198 100.000000
E 194 196 101.000000
E 195 227 105.000000
E 195 211 107.000000
E 195 203 102.000000
E 195 199 104.000000
E 195 196 110.000000
E 196 228 106.000000
E 196 212 107.000000
E 196 204 109.000000
E 196 200 103.000000
E 197 229 109.000000
E 197 213 108.000000
E 197 205 104.000000
E 197 199 100.000000
E 197 198 105.000000
E 198 230 105.000000
E 198 214 104.000000
E 198 206 105.000000
E 198 200 108.000000
E 199 231 110.000000
E 199 215 103.000000
E 199 207 101.000000
E 199 200 101.000000
E 200 232 100.000000
E 200 216 110.000000
E 200 208 104.000000
E 201 233 102.000000
E 201 217 110.000000
E 201 205 109.000000
E 201 203 102.000000
E 201 202 101.000000
E 202 234 102.000000
E 202 218 103.000000
E 202 206 106.000000
E 202 204 104.000000
E 203 235 106.000000
E 203 219 104.000000
E 203 207 104.000000
E 203 204 104.000000
E 204 236 106.000000
E 204 220 104.000000
E 204 208 101.000000
E 205 237 107.000000
E 205 221 110.000000
E 205 207 107.000000
E 205 206 104.000000
E 206 238 109.000000
E 206 222 109.000000
E 206 208 108.000000
E 207 239 104.000000
E 207 223 100.000000
E 207 208 105.000000
E 208 240 107.000000
E 208 224 107.000000
E 209 241 107.000000
E 209 217 108.000000
E 209 213 104.000000
E 209 211 103.000000
E 209 210 104.000000
E 210 242 103.000000
E 210 218 107.000000
E 210 214 101.000000
E 210 212 103.000000
E 211 243 107.000000
E 211 219 109.000000
E 211 215 103.000000
E 211 212 101.000000
E 212 244 106.000000
E 212 220 100.000000
E 212 216 110.000000
E 213 245 104.000000
E 213 221 105.000000
E 213 215 103.000000
E 213 214 102.000000
E 214 246 103.000000
E 214 222 109.000000
E 214 216 101.000000
E 215 247 106.000000
E 215 223 100.000000
E 215 216 105.000000
E 216 248 104.000000
E 216 224 101.000000
E 217 249 108.000000
E 217 221 107.000000
E 217 219 100.000000
E 217 218 108.000000
E 218 250 106.000000
E 218 222 103.000000
E 218 220 104.000000
E 219 251 103.000000
E 219 223 105.000000
E 219 220 107.000000
E 220 252 109.000000
E 220 224 102.000000
E 221 253 105.000000
E 221 223 104.000000
E 221 222 100.000000
E 222 254 100.000000
E 222 224 102.000000
E 223 255 106.000000
E 223 224 109.000000
E 224 256 104.000000
E 225 241 109.000000
E 225 233 103.000000
E 225 229 101.000000
E 225 227 103.000000
E 225 226 110.000000
E 226 242 106.000000
E 226 234 104.000000
E 226 230 105.000000
E 226 228 106.000000
E 227 243 110.000000
E 227 235 104.000000
E 227 231 100.000000
E 227 228 104.000000
E 228 244 106.000000
E 228 236 108.000000
E 228 232 109.000000
E 229 245 101.000000
E 229 237 101.000000
E 229 231 107.000000
E 229 230 109.000000
E 230 246 106.000000
E 230 238 107.000000
E 230 232 110.000000
E 231 247 100.000000
E 231 239 110.000000
E 231 232 102.000000
E 232 248 110.000000
E 232 240 105.000000
E 233 249 103.000000
E 233 237 107.000000
E 233 235 106.000000
E 233 234 109.000000
E 234 250 109.000000
E 234 238 107.000000
E 234 236 108.000000
E 235 251 107.000000
E 235 239 103.000000
E 235 236 105.000000
E 236 252 107.000000
E 236 240 103.000000
E 237 253 109.000000
E 237 239 104.000000
E 237 238 110.000000
E 238 254 103.000000
E 238 240 110.000000
E 239 255 101.000000
E 239 240 104.000000
E 240 256 109.000000
E 241 249 110.000000
E 241 245 103.000000
E 241 243 105.000000
E 241 242 105.000000
E 242 250 108.000000
E 242 246 110.000000
E 242 244 107.000000
E 243 251 102.000000
E 243 247 110.000000
E 243 244 106.000000
E 244 252 101.000000
E 244 248 102.000000
E 245 253 109.000000
E 245 247 102.000000
E 245 246 101.000000
E 246 254 109.000000
E 246 248 106.000000
E 247 255 106.000000
E 247 248 109.000000
E 248 256 107.000000
E 249 253 104.000000
E 249 251 109.000000
E 249 250 107.000000
E 250 254 101.000000
E 250 252 100.000000
E 251 255 107.000000
E 251 252 106.000000
E 252 256 105.000000
E 253 255 106.000000
E 253 254 100.000000
E 254 256 103.000000
E 255 256 109.000000
END

SECTION Terminals
Terminals 256
TP 1 122
TP 2 0
TP 3 0
TP 4 164
TP 5 0
TP 6 117
TP 7 153
TP 8 0
TP 9 0
TP 10 115
TP 11 104
TP 12 0
TP 13 196
TP 14 0
TP 15 0
TP 16 133
TP 17 0
TP 18 125
TP 19 176
TP 20 0
TP 21 108
TP 22 0
TP 23 0
TP 24 154
TP 25 153
TP 26 0
TP 27 0
TP 28 107
TP 29 0
TP 30 199
TP 31 140
TP 32 0
TP 33 0
TP 34 175
TP 35 151
TP 36 0
TP 37 166
TP 38 0
TP 39 0
TP 40 174
TP 41 158
TP 42 0
TP 43 0
TP 44 104
TP 45 0
TP 46 152
TP 47 162
TP 48 0
TP 49 118
TP 50 0
TP 51 0
TP 52 199
TP 53 0
TP 54 126
TP 55 200
TP 56 0
TP 57 0
TP 58 156
TP 59 105
TP 60 0
TP 61 198
TP 62 0
TP 63 0
TP 64 159
TP 65 0
TP 66 138
TP 67 174
TP 68 0
TP 69 176
TP 70 0
TP 71 0
TP 72 136
TP 73 151
TP 74 0
TP 75 0
TP 76 178
TP 77 0
TP 78 177
TP 79 200
TP 80 0
TP 81 175
TP 82 0
TP 83 0
TP 84 198
TP 85 0
TP 86 183
TP 87 122
TP 88 0
TP 89 0
TP 90 199
TP 91 168
TP 92 0
TP 93 105
TP 94 0
TP 95 0
TP 96 181
TP 97 108
TP 98 0
TP 99 0
TP 100 142
TP 101 0
TP 102 180
TP 103 131
TP 104 0
TP 105 0
TP 106 135
TP 107 135
TP 108 0
TP 109 173
TP 110 0
TP 111 0
TP 112 136
TP 113 0
TP 114 100
TP 115 157
TP 116 0
TP 117 176
TP 118 0
TP 119 0
TP 120 194
TP 121 158
TP 122 0
TP 123 0
TP 124 175
TP 125 0
TP 126 132
TP 127 117
TP 128 0
TP 129 0
TP 130 107
TP 131 147
TP 132 0
TP 133 104
TP 134 0
TP 135 0
TP 136 131
TP 137 144
TP 138 0
TP 139 0
TP 140 101
TP 141 0
TP 142 138
TP 143 129
TP 144 0
TP 145 195
TP 146 0
TP 147 0
TP 148 117
TP 149 0
TP 150 130
TP 151 200
TP 152 0
TP 153 0
TP 154 173
TP 155 149
TP 156 0
TP 157 144
TP 158 0
TP 159 0
TP 160 101
TP 161 175
TP 162 0
TP 163 0
TP 164 144
TP 165 0
TP 166 121
TP 167 155
TP 168 0
TP 169 0
TP 170 146
TP 171 177
TP 172 0
TP 173 108
TP 174 0
TP 175 0
TP 176 155
TP 177 0
TP 178 192
TP 179 199
TP 180 0
TP 181 160
TP 182 0
TP 183 0
TP 184 164
TP 185 108
TP 186 0
TP 187 0
TP 188 172
TP 189 0
TP 190 167
TP 191 130
TP 192 0
TP 193 176
TP 194 0
TP 195 0
TP 196 104
TP 197 0
TP 198 151
TP 199 144
TP 200 0
TP 201 0
TP 202 117
TP 203 145
TP 204 0
TP 205 179
TP 206 0
TP 207 0
TP 208 134
TP 209 0
TP 210 115
TP 211 161
TP 212 0
TP 213 103
TP 214 0
TP 215 0
TP 216 105
TP 217 154
TP 218 0
TP 219 0
TP 220 172
TP 221 0
TP 222 153
TP 223 180
TP 224 0
TP 225 0
TP 226 103
TP 227 174
TP 228 0
TP 229 171
TP 230 0
TP 231 0
TP 232 110
TP 233 154
TP 234 0
TP 235 0
TP 236 103
TP 237 0
TP 238 149
TP 239 128
TP 240 0
TP 241 158
TP 242 0
TP 243 0
TP 244 135
TP 245 0
TP 246 170
TP 247 176
TP 248 0
TP 249 0
TP 250 125
TP 251 142
TP 252 0
TP 253 118
TP 254 0
TP 255 0
TP 256 118
END

EOF
